branch-and-cut/resultados/B/b11.sol
# Objective value = 88
e[0,56] 0
e[56,0] 0
e[1,18] 0
e[18,1] 0
e[1,28] 0
e[28,1] 0
e[1,54] 0
e[54,1] 0
e[4,1] 0
e[1,4] 0
e[4,56] 0
e[56,4] 0
e[4,59] 0
e[59,4] 0
e[6,20] 0
e[20,6] 0
e[7,22] 0
e[22,7] 0
e[7,31] 0
e[31,7] 0
e[7,53] 0
e[53,7] 0
e[8,7] 0
e[7,8] 0
e[9,14] 0
e[14,9] 0
e[9,65] 0
e[65,9] 0
e[9,66] 0
e[66,9] 0
e[10,2] 0
e[2,10] 0
e[10,43] 0
e[43,10] 0
e[12,15] 0
e[15,12] 0
e[15,21] 0
e[21,15] 0
e[15,39] 0
e[39,15] 0
e[16,1] 0
e[1,16] 0
e[16,4] 0
e[4,16] 0
e[16,21] 1
e[21,16] 1
e[16,32] 0
e[32,16] 0
e[16,44] 0
e[44,16] 0
e[16,46] 0
e[46,16] 0
e[17,11] 0
e[11,17] 0
e[18,25] 0
e[25,18] 0
e[18,41] 0
e[41,18] 0
e[19,39] 0
e[39,19] 0
e[20,44] 0
e[44,20] 0
e[20,46] 0
e[46,20] 0
e[21,9] 0
e[9,21] 0
e[21,23] 1
e[23,21] 1
e[21,47] 1
e[47,21] 1
e[22,35] 0
e[35,22] 0
e[22,36] 0
e[36,22] 0
e[22,37] 0
e[37,22] 0
e[22,51] 0
e[51,22] 0
e[23,24] 0
e[24,23] 0
e[23,39] 0
e[39,23] 0
e[23,56] 0
e[56,23] 0
e[25,15] 0
e[15,25] 0
e[26,1] 0
e[1,26] 0
e[27,43] 0
e[43,27] 0
e[27,53] 1
e[53,27] 1
e[27,55] 1
e[55,27] 1
e[27,60] 0
e[60,27] 0
e[28,25] 0
e[25,28] 0
e[28,58] 0
e[58,28] 0
e[29,5] 0
e[5,29] 0
e[29,7] 0
e[7,29] 0
e[29,19] 1
e[19,29] 1
e[29,26] 1
e[26,29] 1
e[29,30] 1
e[30,29] 1
e[29,40] 0
e[40,29] 0
e[29,64] 1
e[64,29] 1
e[30,2] 0
e[2,30] 0
e[30,70] 1
e[70,30] 1
e[31,44] 0
e[44,31] 0
e[32,11] 0
e[11,32] 0
e[33,21] 1
e[21,33] 1
e[33,55] 0
e[55,33] 0
e[34,72] 1
e[72,34] 1
e[35,19] 0
e[19,35] 0
e[35,32] 0
e[32,35] 0
e[35,33] 0
e[33,35] 0
e[36,8] 0
e[8,36] 0
e[36,38] 0
e[38,36] 0
e[36,54] 0
e[54,36] 0
e[37,34] 0
e[34,37] 0
e[37,44] 0
e[44,37] 0
e[37,52] 0
e[52,37] 0
e[38,12] 0
e[12,38] 0
e[38,47] 0
e[47,38] 0
e[38,58] 0
e[58,38] 0
e[38,62] 0
e[62,38] 0
e[39,50] 0
e[50,39] 0
e[40,30] 0
e[30,40] 0
e[41,10] 0
e[10,41] 0
e[41,11] 1
e[11,41] 1
e[41,57] 0
e[57,41] 0
e[41,60] 0
e[60,41] 0
e[42,58] 0
e[58,42] 0
e[42,69] 0
e[69,42] 0
e[43,64] 1
e[64,43] 1
e[45,19] 0
e[19,45] 0
e[45,54] 0
e[54,45] 0
e[46,8] 0
e[8,46] 0
e[46,29] 0
e[29,46] 0
e[46,52] 0
e[52,46] 0
e[46,59] 0
e[59,46] 0
e[46,69] 0
e[69,46] 0
e[47,61] 0
e[61,47] 0
e[48,6] 0
e[6,48] 0
e[49,45] 0
e[45,49] 0
e[50,52] 1
e[52,50] 1
e[51,12] 0
e[12,51] 0
e[51,17] 0
e[17,51] 0
e[51,31] 0
e[31,51] 0
e[51,50] 0
e[50,51] 0
e[51,61] 0
e[61,51] 0
e[52,1] 0
e[1,52] 0
e[53,24] 0
e[24,53] 0
e[54,23] 0
e[23,54] 0
e[54,43] 0
e[43,54] 0
e[54,65] 0
e[65,54] 0
e[55,50] 1
e[50,55] 1
e[57,2] 0
e[2,57] 0
e[57,42] 0
e[42,57] 0
e[58,23] 1
e[23,58] 1
e[58,67] 1
e[67,58] 1
e[58,74] 0
e[74,58] 0
e[59,13] 0
e[13,59] 0
e[59,70] 0
e[70,59] 0
e[60,71] 0
e[71,60] 0
e[61,43] 0
e[43,61] 0
e[62,10] 0
e[10,62] 0
e[63,50] 1
e[50,63] 1
e[63,74] 0
e[74,63] 0
e[64,48] 1
e[48,64] 1
e[64,63] 1
e[63,64] 1
e[64,73] 1
e[73,64] 1
e[65,3] 0
e[3,65] 0
e[65,22] 0
e[22,65] 0
e[65,25] 0
e[25,65] 0
e[66,0] 0
e[0,66] 0
e[66,6] 0
e[6,66] 0
e[66,7] 0
e[7,66] 0
e[66,51] 0
e[51,66] 0
e[66,68] 0
e[68,66] 0
e[66,72] 0
e[72,66] 0
e[68,15] 0
e[15,68] 0
e[68,35] 0
e[35,68] 0
e[70,16] 1
e[16,70] 1
e[70,39] 0
e[39,70] 0
e[70,42] 0
e[42,70] 0
e[71,0] 0
e[0,71] 0
e[71,32] 0
e[32,71] 0
e[72,27] 0
e[27,72] 0
e[72,28] 0
e[28,72] 0
e[72,36] 0
e[36,72] 0
e[72,41] 1
e[41,72] 1
e[72,45] 0
e[45,72] 0
e[72,64] 1
e[64,72] 1
e[73,37] 0
e[37,73] 0
e[73,49] 0
e[49,73] 0
e[74,13] 0
e[13,74] 0
e[74,26] 0
e[26,74] 0
e[74,31] 0
e[31,74] 0
